c Real-world animal interaction network data sets. Animal interaction data from published studies of wild, captive, and domesticated animals.
p edge 52 516
e 1 2
e 1 3
e 1 4
e 1 5
e 1 6
e 1 7
e 1 8
e 1 9
e 1 10
e 1 11
e 1 12
e 1 13
e 1 14
e 1 15
e 1 16
e 17 3
e 17 4
e 17 16
e 17 9
e 17 18
e 17 11
e 17 19
e 17 10
e 17 13
e 17 14
e 17 15
e 20 21
e 20 5
e 20 22
e 20 8
e 20 9
e 20 23
e 20 11
e 20 24
e 20 12
e 20 25
e 20 26
e 20 15
e 16 3
e 16 4
e 16 5
e 16 6
e 16 7
e 16 2
e 16 9
e 16 10
e 16 11
e 16 8
e 16 18
e 16 13
e 16 14
e 16 19
e 16 15
e 22 21
e 22 8
e 22 9
e 22 23
e 22 11
e 22 24
e 22 12
e 22 13
e 22 14
e 22 26
e 22 25
e 22 10
e 9 23
e 9 11
e 9 24
e 9 12
e 9 26
e 9 2
e 9 3
e 9 7
e 9 10
e 9 15
e 9 21
e 9 19
e 9 13
e 9 14
e 9 4
e 9 5
e 9 18
e 9 25
e 23 21
e 23 8
e 23 11
e 23 24
e 23 12
e 23 13
e 23 14
e 23 26
e 23 25
e 23 5
e 23 15
e 11 15
e 11 24
e 11 26
e 11 2
e 11 3
e 11 10
e 11 21
e 11 8
e 11 19
e 11 13
e 11 14
e 11 4
e 11 5
e 11 18
e 11 25
e 24 10
e 24 21
e 24 12
e 24 25
e 24 26
e 24 14
e 24 18
e 24 8
e 12 8
e 12 15
e 12 21
e 12 10
e 12 25
e 12 26
e 26 21
e 26 13
e 26 14
e 26 25
e 26 15
e 27 28
e 27 29
e 27 30
e 27 31
e 2 4
e 2 5
e 2 6
e 2 8
e 2 10
e 2 19
e 2 18
e 2 13
e 2 14
e 3 4
e 3 6
e 3 8
e 3 18
e 3 19
e 3 10
e 3 13
e 3 14
e 3 7
e 3 15
e 31 28
e 31 29
e 31 30
e 10 4
e 10 5
e 10 18
e 10 8
e 10 15
e 10 7
e 10 19
e 10 6
e 15 4
e 15 21
e 15 13
e 15 14
e 15 19
e 15 18
e 15 5
e 15 8
e 21 8
e 21 25
e 21 14
e 21 5
e 8 25
e 8 7
e 8 19
e 8 4
e 8 18
e 8 6
e 19 4
e 19 5
e 19 7
e 19 18
e 19 13
e 19 14
e 19 6
e 29 28
e 29 6
e 29 30
e 13 4
e 13 5
e 13 18
e 13 25
e 13 14
e 13 7
e 13 6
e 14 7
e 14 18
e 14 25
e 14 6
e 28 30
e 4 5
e 4 6
e 4 18
e 4 7
e 5 6
e 5 18
e 7 6
e 6 18
e 18 25
e 1 32
e 1 33
e 1 15
e 1 4
e 1 34
e 35 36
e 35 37
e 35 27
e 22 38
e 22 9
e 22 23
e 22 11
e 22 24
e 22 12
e 22 39
e 22 25
e 22 26
e 22 37
e 22 40
e 22 41
e 9 17
e 9 2
e 9 10
e 9 41
e 9 11
e 9 24
e 9 12
e 9 39
e 9 25
e 9 26
e 9 37
e 9 40
e 9 23
e 10 32
e 10 17
e 10 15
e 10 24
e 10 26
e 10 2
e 10 42
e 10 31
e 10 33
e 10 41
e 10 43
e 10 44
e 10 13
e 10 14
e 10 37
e 10 45
e 10 34
e 10 4
e 10 46
e 10 47
e 10 36
e 10 25
e 11 38
e 11 2
e 11 4
e 11 5
e 11 24
e 11 12
e 11 13
e 11 25
e 11 26
e 11 33
e 11 37
e 11 14
e 24 38
e 24 17
e 24 48
e 24 5
e 24 41
e 24 40
e 24 13
e 24 25
e 24 39
e 24 12
e 24 37
e 24 23
e 24 32
e 24 26
e 24 15
e 12 32
e 12 48
e 12 5
e 12 46
e 12 36
e 12 40
e 12 39
e 12 25
e 12 26
e 12 37
e 12 34
e 12 41
e 12 15
e 12 23
e 26 32
e 26 23
e 26 49
e 26 31
e 26 50
e 26 41
e 26 39
e 26 43
e 26 15
e 26 13
e 26 37
e 26 45
e 26 4
e 26 5
e 26 47
e 26 51
e 26 36
e 26 25
e 27 32
e 27 4
e 27 49
e 27 31
e 27 2
e 27 50
e 27 36
e 27 51
e 27 13
e 27 52
e 27 43
e 27 37
e 27 45
e 27 41
e 27 47
e 38 25
e 38 13
e 2 17
e 2 40
e 2 48
e 2 31
e 2 33
e 2 41
e 2 43
e 2 15
e 2 44
e 2 13
e 2 14
e 2 37
e 2 34
e 2 4
e 2 46
e 2 47
e 2 36
e 2 25
e 2 50
e 48 4
e 48 46
e 48 33
e 48 36
e 48 15
e 48 25
e 48 34
e 48 41
e 49 32
e 49 17
e 49 4
e 49 5
e 49 31
e 49 47
e 49 50
e 49 13
e 49 52
e 49 45
e 49 43
e 31 4
e 31 44
e 31 51
e 31 50
e 31 36
e 31 15
e 31 13
e 31 52
e 31 37
e 31 45
e 31 41
e 31 43
e 31 47
e 33 4
e 33 46
e 33 44
e 33 36
e 33 13
e 33 25
e 33 37
e 33 14
e 33 34
e 33 41
e 33 32
e 33 15
e 41 32
e 41 17
e 41 40
e 41 15
e 41 39
e 41 43
e 41 23
e 41 42
e 41 14
e 41 13
e 41 37
e 41 34
e 41 4
e 41 46
e 41 47
e 41 36
e 41 25
e 41 50
e 40 17
e 40 13
e 40 25
e 39 25
e 39 23
e 52 51
e 52 50
e 52 36
e 52 47
e 52 43
e 52 37
e 52 45
e 43 4
e 43 51
e 43 50
e 43 47
e 43 37
e 43 45
e 43 36
e 23 32
e 23 15
e 23 25
e 23 37
e 32 4
e 32 5
e 32 47
e 32 15
e 32 13
e 32 25
e 32 37
e 32 14
e 15 17
e 15 44
e 15 13
e 15 14
e 15 37
e 15 34
e 15 4
e 15 47
e 15 36
e 15 25
e 44 17
e 44 4
e 44 13
e 44 14
e 44 37
e 42 17
e 42 37
e 17 4
e 17 47
e 17 13
e 17 14
e 17 50
e 17 37
e 17 36
e 13 14
e 13 37
e 13 45
e 13 4
e 13 5
e 13 47
e 13 25
e 13 50
e 37 45
e 37 14
e 37 4
e 37 46
e 37 47
e 37 36
e 37 25
e 45 51
e 45 50
e 45 36
e 45 47
e 14 4
e 14 25
e 34 4
e 34 46
e 34 36
e 4 5
e 4 46
e 4 47
e 4 36
e 4 25
e 5 25
e 46 36
e 47 51
e 47 50
e 47 25
e 47 36
e 51 50
e 51 36
e 36 50
